c b=6,c=193
p cnf 20 110
6 -12 0
1 3 5 6 -18 0
2 4 6 -19 0
-6 12 0
1 3 5 -6 18 0
1 3 5 -6 19 0
5 -11 0
2 4 5 -17 0
1 3 5 -20 0
2 4 -5 6 18 0
6 -20 0
2 4 -5 -6 -18 0
-5 -6 20 0
-5 11 0
2 4 -5 17 0
2 4 -5 -19 0
4 -10 0
1 3 4 -16 0
1 3 -4 6 -18 0
1 3 5 6 -19 0
1 3 -4 -6 18 0
1 3 -4 5 17 0
-4 -5 6 19 0
1 3 -5 -6 -19 0
1 3 -4 -5 -17 0
-4 10 0
1 3 -4 16 0
3 -9 0
2 3 -15 0
2 4 5 6 -18 0
2 4 5 -6 18 0
4 5 -6 19 0
2 -3 5 -17 0
4 5 -20 0
2 -3 -5 17 0
2 -3 4 16 0
-3 -4 5 6 18 0
-3 -4 5 -6 -18 0
-3 -4 -6 20 0
-3 -4 5 -19 0
2 -4 -5 6 -18 0
2 -4 -5 -6 18 0
-3 -4 -6 -19 0
2 -3 -4 -16 0
-3 9 0
2 -3 15 0
2 -8 0
1 2 -14 0
3 4 6 -19 0
1 3 4 5 -17 0
3 4 -5 6 18 0
3 4 -5 -6 -18 0
1 3 4 -5 17 0
3 4 -5 -19 0
1 -2 4 -16 0
1 -2 5 6 -19 0
1 -2 -5 -6 -19 0
1 -2 -4 16 0
1 -2 3 15 0
-2 -3 4 6 -18 0
-2 -3 4 -6 18 0
-2 -3 4 5 17 0
-2 -3 -5 6 19 0
-2 -3 4 -5 -17 0
1 -3 -4 5 -17 0
-2 -3 -5 6 -18 0
-2 -3 -5 -6 18 0
1 -3 -4 -5 17 0
1 -2 -3 -15 0
-2 8 0
1 -2 14 0
1 -7 0
1 -13 0
2 3 5 6 -18 0
2 3 5 -6 18 0
2 3 5 -6 19 0
2 3 5 -20 0
2 3 4 -16 0
2 3 -4 6 -18 0
2 3 5 6 -19 0
2 3 -4 -6 18 0
2 3 -4 5 17 0
2 3 -5 -6 -19 0
2 3 -4 -5 -17 0
2 3 -4 16 0
-1 3 -15 0
-1 4 5 6 -18 0
-1 4 5 -6 18 0
-1 -4 -5 6 -18 0
-1 -4 -5 -6 18 0
-1 -3 15 0
-1 2 14 0
-1 -2 3 5 -17 0
-1 -2 3 -5 17 0
-1 -2 3 4 16 0
-1 -2 -4 5 6 18 0
-1 -2 -4 5 -6 -18 0
-1 -2 -4 -6 20 0
-1 -2 -4 5 -19 0
-1 -2 -4 -6 -19 0
-1 -2 3 -4 -16 0
-2 -3 5 6 -19 0
-2 -3 -5 -6 -19 0
-2 -3 4 -16 0
-1 -2 -4 5 -17 0
-1 -2 -4 -5 17 0
-2 -3 -4 16 0
-1 -2 -14 0
-1 7 0
-1 13 0
